(set-info :source |
 Generated by Alive 0.1
 More info in N. P. Lopes, D. Menendez, S. Nagarakatte, J. Regehr.
 Provably Correct Peephole Optimizations with Alive. In PLDI'15.
|)

(set-info :status unknown)
(declare-fun %Y () (_ BitVec 5))
(declare-fun %X () (_ BitVec 5))
(assert
 (let (($x474758 (and (distinct (bvurem ((_ zero_extend 21) %X) ((_ zero_extend 21) %Y)) ((_ zero_extend 21) (bvurem %X %Y))) true)))
 (let ((?x447885 ((_ zero_extend 21) %Y)))
 (let (($x447878 (and (distinct ?x447885 (_ bv0 26)) true)))
 (and $x447878 $x474758)))))
(check-sat)
